RT is False
Default write of storage_offers_DA.csv just to have a file (but constraint should be inactive)
Reading model...
...model read.
creating competitive generators file...
...competitive generators recorded.
Loading data...
.. day-ahead data with real-time VRE data read.
Compiling instance...
...instance created.
Creating Offer Mitigation (model will solve as dispatch if TRUE)...
NOTE: storage offers will not be mitigated
...storage offer mitigation file created
Converting model to MPEC...
...converted
NOTE: initial MIP solve with only storage competitive to get feasible solution
Solving...

Welcome to IBM(R) ILOG(R) CPLEX(R) Interactive Optimizer 12.8.0.0
  with Simplex, Mixed Integer & Barrier Optimizers
5725-A06 5725-A29 5724-Y48 5724-Y49 5724-Y54 5724-Y55 5655-Y21
Copyright IBM Corp. 1988, 2017.  All Rights Reserved.

Type 'help' for a list of available commands.
Type 'help' followed by a command name for more
information on commands.

CPLEX> Logfile 'cplex.log' closed.
Logfile 'C:\Users\llavi\Desktop\test919\logs\tmppcfy6nb1.cplex.log' open.
CPLEX> New value for parallel optimization mode: -1
CPLEX> New value for mixed integer optimality gap tolerance: 0.01
CPLEX> New value for integrality tolerance: 1e-09
CPLEX> New value for feasibility tolerance: 0.01
CPLEX> New value for deterministic time limit in ticks: 75000
CPLEX> Problem 'C:\Users\llavi\Desktop\test919\logs\tmpzn8e9jzt.pyomo.lp' read.
Read time = 0.27 sec. (13.50 ticks)
CPLEX> Problem name         : C:\Users\llavi\Desktop\test919\logs\tmpzn8e9jzt.pyomo.lp
Objective sense      : Maximize
Variables            :   54021  [Nneg: 1,  Box: 22008,  Free: 4464,
                                 Binary: 27548]
Objective nonzeros   :    8979
Linear constraints   :  123829  [Less: 41554,  Greater: 59512,  Equal: 22763]
  Nonzeros           :  300592
  RHS nonzeros       :   67900

Variables            : Min LB: -5000.000        Max UB: 1000000.       
Objective nonzeros   : Min   : 0.4083333        Max   : 722.0000       
Linear constraints   :
  Nonzeros           : Min   : 0.001000000      Max   : 1000000.       
  RHS nonzeros       : Min   : 0.4083333        Max   : 1000000.       
CPLEX> CPXPARAM_Simplex_Tolerances_Feasibility          0.01
CPXPARAM_Parallel                                -1
CPXPARAM_DetTimeLimit                            75000
CPXPARAM_MIP_Tolerances_MIPGap                   0.01
CPXPARAM_MIP_Tolerances_Integrality              1.0000000000000001e-09
Tried aggregator 3 times.
MIP Presolve eliminated 89328 rows and 19220 columns.
MIP Presolve added 3398 rows and 0 columns.
MIP Presolve modified 23869 coefficients.
Aggregator did 13031 substitutions.
Reduced MIP has 24868 rows, 21214 columns, and 70984 nonzeros.
Reduced MIP has 8390 binaries, 0 generals, 0 SOSs, and 0 indicators.
Presolve time = 0.38 sec. (169.77 ticks)
Probing fixed 429 vars, tightened 2868 bounds.
Probing time = 3.42 sec. (907.28 ticks)
Tried aggregator 2 times.
MIP Presolve eliminated 975 rows and 861 columns.
MIP Presolve modified 2189 coefficients.
Aggregator did 43 substitutions.
Reduced MIP has 23850 rows, 20310 columns, and 68039 nonzeros.
Reduced MIP has 7960 binaries, 0 generals, 0 SOSs, and 0 indicators.
Presolve time = 0.13 sec. (55.76 ticks)
Probing time = 0.06 sec. (16.07 ticks)
Clique table members: 6367.
MIP emphasis: balance optimality and feasibility.
MIP search method: dynamic search.
Parallel mode: opportunistic, using up to 4 threads.
Root relaxation solution time = 0.78 sec. (585.41 ticks)

        Nodes                                         Cuts/
   Node  Left     Objective  IInf  Best Integer    Best Bound    ItCnt     Gap

      0     0     3648.0958  1008                   3648.0958     4772         
      0     0     3648.0462    36                    Cuts: 44     4789         
      0     0     3648.0462    33                     Cuts: 6     4792         
      0     0     3648.0462    33                 Impl Bds: 1     4792         
      0     2     3648.0462    31                   3648.0462     4792         
Elapsed time = 15.73 sec. (4973.12 ticks, tree = 0.02 MB, solutions = 0)
     53    30     1050.1757    15                   3635.2357     5342         
    120    81      477.8942    13                   3635.2357     5583         
    199   166     3541.2639     4                   3635.2357     5813         
    227   176    infeasible                         3635.2357     5847         
    250   179     3607.6716     1                   3635.2357     5862         
    266   178    infeasible                         3635.2357     5868         
    283   178    infeasible                         3635.2357     5876         
    296   179     3607.6716     1                   3635.2357     5884         
    307   179     3607.6716     1                   3635.2357     5885         
    352   179     3541.2639     1                   3635.2357     5913         
Elapsed time = 20.67 sec. (8276.37 ticks, tree = 2.93 MB, solutions = 0)
    385   176    infeasible                         3635.2357     5928         
*   427   166      integral     0     3185.8491     3635.2357     5993   14.11%
    570    75     3427.2925     2     3185.8491     3635.2357     6182   14.11%
    759   188     3501.2869     2     3185.8491     3635.2357     6739   14.11%
*   788   194      integral     0     3308.0962     3635.2357     6838    9.89%
   1009   299     3578.1935     8     3308.0962     3635.2357     7294    9.89%
*  1098   380      integral     0     3308.5337     3635.2357     7614    9.87%
   1234   475        cutoff           3308.5337     3635.2357     8006    9.87%
   1363   386        cutoff           3308.5337     3629.6426     7712    9.71%
   1472   503     3628.7447    21     3308.5337     3629.6426     8251    9.71%
Elapsed time = 35.11 sec. (16513.80 ticks, tree = 4.44 MB, solutions = 4)
*  1563+  614                         3328.7944     3629.6426             9.04%
   1672   644     3459.6606     2     3328.7944     3629.6426     8789    9.04%
   1924   676     3628.5459     1     3328.7944     3629.6426     8949    9.04%
   2116   900     3421.0484     2     3328.7944     3629.6426     9946    9.04%
   2216   915     3563.1964     5     3328.7944     3629.6426    10026    9.04%
   2375  1052     3626.9488     1     3328.7944     3629.6426    10668    9.04%
   2534  1075     3493.3987     5     3328.7944     3628.7447    10871    9.01%
   2643  1105     3368.5118     2     3328.7944     3628.7447    10934    9.01%
   2801  1223     3379.2986     3     3328.7944     3628.7447    11715    9.01%
   2979  1223        cutoff           3328.7944     3628.7447    11735    9.01%
   3091  1300     3413.6677     3     3328.7944     3628.7447    12217    9.01%
Elapsed time = 52.45 sec. (26086.82 ticks, tree = 11.60 MB, solutions = 6)
   3221  1368        cutoff           3328.7944     3623.0392    12473    8.84%
   3262  1442        cutoff           3328.7944     3623.0392    12843    8.84%
   3344  1480     3550.6381     3     3328.7944     3623.0392    12951    8.84%
   3488  1569     3478.7757     1     3328.7944     3623.0392    13620    8.84%
   3551  1548     3379.2986     1     3328.7944     3623.0392    13343    8.84%
   3570  1623     3634.2578    10     3328.7944     3623.0392    21415    8.84%
   3827    34     3466.7697     3     3328.7944     3623.0392    21620    8.84%
   4089   209     3363.9778     2     3328.7944     3623.0392    22601    8.84%
   4200   301        cutoff           3328.7944     3623.0392    23319    8.84%
   4346   314        cutoff           3328.7944     3623.0392    23417    8.84%
Elapsed time = 78.66 sec. (38161.81 ticks, tree = 1.81 MB, solutions = 6)
   4477   369        cutoff           3328.7944     3623.0392    23672    8.84%
   4601   453     3425.8122     2     3328.7944     3623.0392    24118    8.84%
   4764   493     3457.8210     2     3328.7944     3623.0392    24394    8.84%
   4883   540        cutoff           3328.7944     3623.0392    24672    8.84%
   4988   563     3425.8122     2     3328.7944     3623.0392    24763    8.84%
   5059   591     3578.0535     1     3328.7944     3623.0392    24882    8.84%
   5115   602     3331.2179     3     3328.7944     3623.0392    24926    8.84%
   5168   607     3331.2179     3     3328.7944     3623.0392    24987    8.84%
   5218   621     3425.8122     2     3328.7944     3623.0392    25128    8.84%
   5267   624     3331.2179     4     3328.7944     3623.0392    25132    8.84%
Elapsed time = 96.08 sec. (47809.45 ticks, tree = 3.53 MB, solutions = 6)
   5312   633     3598.3142     1     3328.7944     3623.0392    25167    8.84%
   5385   638     3331.2179     3     3328.7944     3623.0392    25259    8.84%
   5436   638     3578.0535     1     3328.7944     3623.0392    25262    8.84%
   5468   672     3578.0535     3     3328.7944     3623.0392    25333    8.84%
   5511   704        cutoff           3328.7944     3623.0392    25655    8.84%
   5549   693        cutoff           3328.7944     3623.0392    25504    8.84%
   5588   709     3425.8122     2     3328.7944     3623.0392    25681    8.84%
   5664   730     3577.6161     1     3328.7944     3623.0392    25804    8.84%
   5715   720     3598.3142     1     3328.7944     3623.0392    25746    8.84%
   5761   713     3331.2179     3     3328.7944     3623.0392    25698    8.84%
Elapsed time = 115.53 sec. (57642.53 ticks, tree = 4.16 MB, solutions = 6)
   5799   741        cutoff           3328.7944     3623.0392    25888    8.84%
   5838   742        cutoff           3328.7944     3623.0392    25900    8.84%
   5869   742        cutoff           3328.7944     3623.0392    25906    8.84%
   5902   746     3598.3142     1     3328.7944     3623.0392    25899    8.84%
   5965   788     3577.6161     1     3328.7944     3623.0392    26122    8.84%
   5996   748        cutoff           3328.7944     3623.0392    25911    8.84%
   6029   753     3598.3142     1     3328.7944     3623.0392    25932    8.84%
   6063   767     3598.3142     1     3328.7944     3623.0392    26023    8.84%
   6095   769     3598.3142     1     3328.7944     3623.0392    26027    8.84%
   6124   773     3331.2179     3     3328.7944     3623.0392    26036    8.84%
Elapsed time = 128.41 sec. (67634.91 ticks, tree = 4.70 MB, solutions = 6)
   6145   806     3577.6161     1     3328.7944     3623.0392    26240    8.84%
   6178   807     3331.2179     3     3328.7944     3623.0392    26246    8.84%
   6205   824     3577.6161     1     3328.7944     3623.0392    26346    8.84%
   6227   812     3598.3142     1     3328.7944     3623.0392    26276    8.84%
   6252   814     3578.0535     1     3328.7944     3623.0392    26277    8.84%
   6278   826     3577.6161     1     3328.7944     3623.0392    26357    8.84%
   6302   822     3598.3142     1     3328.7944     3623.0392    26326    8.84%

Implied bound cuts applied:  7
Flow cuts applied:  8
Mixed integer rounding cuts applied:  11
Gomory fractional cuts applied:  2

Root node processing (before b&c):
  Real time             =   15.28 sec. (4930.47 ticks)
Parallel b&c, 4 threads:
  Real time             =  122.02 sec. (70480.37 ticks)
  Sync time (average)   =    1.01 sec.
  Wait time (average)   =    0.02 sec.
                          ------------
Total (root+branch&cut) =  137.30 sec. (75410.84 ticks)

Solution pool: 6 solutions saved.

MIP - Deterministic time limit exceeded, integer feasible:  Objective =  3.3287943604e+03
Current MIP best bound =  3.6230392435e+03 (gap = 294.245, 8.84%)
Solution time =  137.30 sec.  Iterations = 26401  Nodes = 6311 (832)
Deterministic time = 75411.00 ticks  (549.25 ticks/sec)

CPLEX> Incumbent solution written to file 'C:\Users\llavi\Desktop\test919\logs\tmppvkfwe5l.cplex.sol'.
CPLEX> NOTE: no warmstart specified for MIP iteration, default behavior is true
NOTE: resolving with all competitive generators using storage-only solution to warmstart
Solving...

Welcome to IBM(R) ILOG(R) CPLEX(R) Interactive Optimizer 12.8.0.0
  with Simplex, Mixed Integer & Barrier Optimizers
5725-A06 5725-A29 5724-Y48 5724-Y49 5724-Y54 5724-Y55 5655-Y21
Copyright IBM Corp. 1988, 2017.  All Rights Reserved.

Type 'help' for a list of available commands.
Type 'help' followed by a command name for more
information on commands.

CPLEX> Logfile 'cplex.log' closed.
Logfile 'C:\Users\llavi\Desktop\test919\logs\tmp_4_d4ep7.cplex.log' open.
CPLEX> New value for parallel optimization mode: -1
CPLEX> New value for mixed integer optimality gap tolerance: 0.01
CPLEX> New value for integrality tolerance: 1e-09
CPLEX> New value for feasibility tolerance: 0.01
CPLEX> New value for deterministic time limit in ticks: 75000
CPLEX> Problem 'C:\Users\llavi\Desktop\test919\logs\tmpz9w6b1se.pyomo.lp' read.
Read time = 0.30 sec. (13.52 ticks)
CPLEX> MIP start file 'C:\Users\llavi\Desktop\test919\logs\tmpbpk08b3d.cplex.mst' read.
CPLEX> Problem name         : C:\Users\llavi\Desktop\test919\logs\tmpz9w6b1se.pyomo.lp
Objective sense      : Maximize
Variables            :   54741  [Nneg: 1,  Box: 22728,  Free: 4464,
                                 Binary: 27548]
Objective nonzeros   :    9699
Linear constraints   :  123829  [Less: 41554,  Greater: 59512,  Equal: 22763]
  Nonzeros           :  300592
  RHS nonzeros       :   67900

Variables            : Min LB: -5000.000        Max UB: 1000000.       
Objective nonzeros   : Min   : 0.4083333        Max   : 722.0000       
Linear constraints   :
  Nonzeros           : Min   : 0.001000000      Max   : 1000000.       
  RHS nonzeros       : Min   : 0.4083333        Max   : 1000000.       
CPLEX> CPXPARAM_Simplex_Tolerances_Feasibility          0.01
CPXPARAM_Parallel                                -1
CPXPARAM_DetTimeLimit                            75000
CPXPARAM_MIP_Tolerances_MIPGap                   0.01
CPXPARAM_MIP_Tolerances_Integrality              1.0000000000000001e-09
Warning:  No solution found from 1 MIP starts.
Retaining values of one MIP start for possible repair.
Tried aggregator 3 times.
MIP Presolve eliminated 89328 rows and 19940 columns.
MIP Presolve added 3398 rows and 0 columns.
MIP Presolve modified 23869 coefficients.
Aggregator did 13031 substitutions.
Reduced MIP has 24868 rows, 21214 columns, and 70984 nonzeros.
Reduced MIP has 8390 binaries, 0 generals, 0 SOSs, and 0 indicators.
Presolve time = 0.27 sec. (170.14 ticks)
Probing fixed 429 vars, tightened 2868 bounds.
Probing time = 3.47 sec. (907.28 ticks)
Tried aggregator 2 times.
MIP Presolve eliminated 975 rows and 861 columns.
MIP Presolve modified 2189 coefficients.
Aggregator did 43 substitutions.
Reduced MIP has 23850 rows, 20310 columns, and 68039 nonzeros.
Reduced MIP has 7960 binaries, 0 generals, 0 SOSs, and 0 indicators.
Presolve time = 0.13 sec. (55.77 ticks)
Probing time = 0.06 sec. (16.07 ticks)
Clique table members: 6367.
MIP emphasis: balance optimality and feasibility.
MIP search method: dynamic search.
Parallel mode: opportunistic, using up to 4 threads.
Root relaxation solution time = 0.72 sec. (587.21 ticks)

        Nodes                                         Cuts/
   Node  Left     Objective  IInf  Best Integer    Best Bound    ItCnt     Gap

      0     0     3648.0958  1012                   3648.0958     4577         
      0     0     3648.0462    38                    Cuts: 52     4597         
      0     0     3648.0462    35                    Cuts: 14     4600         
      0     0     3648.0462    35                 Impl Bds: 1     4600         
*     0+    0                         3287.8355     3648.0462            10.96%
Repair heuristic succeeded.
      0     2     3648.0462     6     3287.8355     3648.0462     4610   10.96%
Elapsed time = 25.30 sec. (9055.52 ticks, tree = 0.03 MB, solutions = 1)
     49    18     3578.1935     3     3287.8355     3635.2357     4687   10.57%
    102    27        cutoff           3287.8355     3635.2357     4752   10.57%
    135    71     3607.2342     2     3287.8355     3635.2357     4937   10.57%
    178   114     3491.2607     1     3287.8355     3635.2357     5163   10.57%
    221    83     3441.9239     2     3287.8355     3635.2357     4999   10.57%
    264   124        cutoff           3287.8355     3635.2357     5201   10.57%
    294   129     3435.4195     1     3287.8355     3635.2357     5228   10.57%
    333   177     3607.1486     3     3287.8355     3635.2357     5451   10.57%
    377   160     3603.8301     1     3287.8355     3635.2357     5379   10.57%
    461   218        cutoff           3287.8355     3635.2357     5580   10.57%
Elapsed time = 30.11 sec. (12186.20 ticks, tree = 1.15 MB, solutions = 1)
    556   273     3502.3531     2     3287.8355     3635.2357     5827   10.57%
    684   338        cutoff           3308.5337     3635.2357     6093    9.87%
    791   390     3364.1549     3     3308.5337     3635.2357     6413    9.87%
    911   441     3462.0387     2     3308.5337     3635.2357     6663    9.87%
   1015   492     3365.5721     2     3308.5337     3635.2357     7075    9.87%
   1168   499     3570.9694     3     3308.5337     3635.2357     7221    9.87%
   1321   611        cutoff           3308.5337     3635.2357     7883    9.87%
   1378   635     3507.4328     2     3308.5337     3635.2357     8005    9.87%
   1449   685     3493.6556     2     3308.5337     3635.2357     8176    9.87%
   1495   669        cutoff           3308.5337     3635.2357     8120    9.87%
Elapsed time = 43.63 sec. (21797.07 ticks, tree = 5.21 MB, solutions = 2)
   1537   691        cutoff           3308.5337     3635.2357     8224    9.87%
   1619   721     3574.4243     2     3308.5337     3635.2357     8355    9.87%
   1649   780     3574.4243     2     3308.5337     3635.2357     8458    9.87%
   1680   778        cutoff           3308.5337     3635.2357     8426    9.87%
   1745   827     3574.4243     1     3308.5337     3635.2357     8597    9.87%
   1789   781     3570.9694     2     3308.5337     3635.2357     8464    9.87%
   1833   790        cutoff           3308.5337     3635.2357     8490    9.87%
   1877   882        cutoff           3308.5337     3635.2357     8799    9.87%
   1910   887     3485.5389     4     3308.5337     3635.2357     8815    9.87%
   1937   891     3485.1434     2     3308.5337     3635.2357     8829    9.87%
Elapsed time = 60.16 sec. (31582.08 ticks, tree = 6.80 MB, solutions = 2)
   1993   938     3485.1434     4     3308.5337     3635.2357     8917    9.87%
   2030   873        cutoff           3308.5337     3635.2357     8768    9.87%
   2056   914     3574.4243     2     3308.5337     3635.2357     8901    9.87%
   2081   965     3485.1434     2     3308.5337     3635.2357     8962    9.87%
   2103   977     3485.1434     2     3308.5337     3635.2357     9001    9.87%
   2122   916     3573.9436     1     3308.5337     3635.2357     8908    9.87%
   2145   982     3574.4243     2     3308.5337     3635.2357     9014    9.87%
   2167   983     3574.4243     2     3308.5337     3635.2357     9017    9.87%
   2188   920     3570.9694     1     3308.5337     3635.2357     8919    9.87%
   2206   987     3573.9436     2     3308.5337     3635.2357     9024    9.87%
Elapsed time = 75.22 sec. (42030.89 ticks, tree = 7.91 MB, solutions = 2)
   2225  1003        cutoff           3308.5337     3635.2357     9078    9.87%
   2242   990     3573.9436     1     3308.5337     3635.2357     9032    9.87%
   2259   990     3570.9694     2     3308.5337     3635.2357     9034    9.87%
   2280  1017     3485.1434     2     3308.5337     3635.2357     9117    9.87%
   2292  1018     3485.1434     2     3308.5337     3635.2357     9120    9.87%
   2307  1005     3570.9694     2     3308.5337     3635.2357     9081    9.87%
   2326  1021     3485.1434     2     3308.5337     3635.2357     9129    9.87%
   2341  1033     3485.1434     2     3308.5337     3635.2357     9170    9.87%
   2357  1018     3570.9694     2     3308.5337     3635.2357     9122    9.87%
   2375  1035     3485.1434     2     3308.5337     3635.2357     9176    9.87%
Elapsed time = 87.11 sec. (52625.20 ticks, tree = 8.28 MB, solutions = 2)
   2392  1039     3574.4243     2     3308.5337     3635.2357     9186    9.87%
   2406  1026     3570.9694     2     3308.5337     3635.2357     9150    9.87%
   2425  1054     3485.1434     1     3308.5337     3635.2357     9257    9.87%
   2439  1041     3574.4243     2     3308.5337     3635.2357     9191    9.87%
   2456  1046     3573.9436     2     3308.5337     3635.2357     9233    9.87%
   2472  1056     3574.4243     2     3308.5337     3635.2357     9266    9.87%
   2485  1050     3570.9694     2     3308.5337     3635.2357     9253    9.87%
   2501  1061     3573.9436     2     3308.5337     3635.2357     9288    9.87%
   2521  1066     3574.4243     3     3308.5337     3635.2357     9310    9.87%
   2531  1077     3485.1434     1     3308.5337     3635.2357     9335    9.87%
Elapsed time = 101.77 sec. (63161.12 ticks, tree = 8.64 MB, solutions = 2)
   2545  1068     3570.9694     2     3308.5337     3635.2357     9308    9.87%
   2561  1098        cutoff           3308.5337     3635.2357     9396    9.87%
   2582  1085     3574.4243     2     3308.5337     3635.2357     9352    9.87%
   2595  1083     3573.9436     2     3308.5337     3635.2357     9336    9.87%
   2611  1089     3573.9436     3     3308.5337     3635.2357     9359    9.87%
   2627  1106     3485.1434     2     3308.5337     3635.2357     9416    9.87%
   2640  1106     3574.4243     2     3308.5337     3635.2357     9433    9.87%
   2657  1104     3573.9436     2     3308.5337     3635.2357     9412    9.87%
   2672  1108     3573.9436     2     3308.5337     3635.2357     9418    9.87%
   2684  1109     3570.9694     1     3308.5337     3635.2357     9423    9.87%
Elapsed time = 114.14 sec. (73811.08 ticks, tree = 9.72 MB, solutions = 2)
   2696  1109     3570.9694     2     3308.5337     3635.2357     9424    9.87%
   2703  1111     3570.9694     2     3308.5337     3635.2357     9430    9.87%

Clique cuts applied:  1
Implied bound cuts applied:  19
Flow cuts applied:  20
Mixed integer rounding cuts applied:  1
Gomory fractional cuts applied:  11

Root node processing (before b&c):
  Real time             =   25.06 sec. (9011.01 ticks)
Parallel b&c, 4 threads:
  Real time             =   89.72 sec. (66788.89 ticks)
  Sync time (average)   =    0.06 sec.
  Wait time (average)   =    0.02 sec.
                          ------------
Total (root+branch&cut) =  114.78 sec. (75799.90 ticks)

Solution pool: 2 solutions saved.

MIP - Deterministic time limit exceeded, integer feasible:  Objective =  3.3085336520e+03
Current MIP best bound =  3.6352357096e+03 (gap = 326.702, 9.87%)
Solution time =  114.78 sec.  Iterations = 9516  Nodes = 2704 (1141)
Deterministic time = 75800.06 ticks  (660.39 ticks/sec)

CPLEX> Incumbent solution written to file 'C:\Users\llavi\Desktop\test919\logs\tmp2uoz058i.cplex.sol'.
CPLEX> Exporting results... 
